TOUR_SECTION
19
136
2
55
80
108
82
165
148
91
75
98
99
46
116
106
44
121
32
30
150
178
21
84
69
26
36
117
140
176
194
23
1
193
168
139
76
169
197
60
104
181
112
53
134
199
61
109
115
83
189
22
62
182
51
152
59
88
195
192
200
122
7
145
132
164
125
163
20
94
191
39
144
127
175
160
50
190
184
52
156
107
93
196
56
72
154
68
95
77
141
185
35
63
66
174
114
79
81
123
103
188
102
167
133
64
177
45
42
87
149
187
6
198
67
111
172
58
147
146
43
31
166
57
129
5
16
17
113
78
124
186
183
159
24
3
97
89
29
33
11
155
8
162
138
101
131
15
142
170
137
12
86
161
13
151
153
70
173
126
28
128
179
96
37
38
92
41
10
143
49
27
74
105
48
71
40
47
73
18
130
90
120
180
171
4
54
158
119
9
25
110
100
118
14
65
157
135
34
85
-1
EOF